p cnf 421 644
11 13 27 101 102 0
11 13 27 101 -102 0
11 13 27 -101 102 0
11 13 27 -101 -102 0
-13 27 63 103 104 0
-13 27 63 103 -104 0
-13 27 63 -103 104 0
-13 27 63 -103 -104 0
-13 27 -63 105 106 0
-13 27 -63 105 -106 0
-13 27 -63 -105 106 0
-13 27 -63 -105 -106 0
9 11 -27 107 108 0
9 11 -27 107 -108 0
9 11 -27 -107 108 0
9 11 -27 -107 -108 0
-9 11 -27 109 110 0
-9 11 -27 109 -110 0
-9 11 -27 -109 110 0
-9 11 -27 -109 -110 0
-11 32 98 111 112 0
-11 32 98 111 -112 0
-11 32 98 -111 112 0
-11 32 98 -111 -112 0
-11 32 -98 113 114 0
-11 32 -98 113 -114 0
-11 32 -98 -113 114 0
-11 32 -98 -113 -114 0
20 -32 53 115 116 0
20 -32 53 115 -116 0
20 -32 53 -115 116 0
20 -32 53 -115 -116 0
-11 -20 53 117 118 0
-11 -20 53 117 -118 0
-11 -20 53 -117 118 0
-11 -20 53 -117 -118 0
-13 -32 -53 119 120 0
-13 -32 -53 119 -120 0
-13 -32 -53 -119 120 0
-13 -32 -53 -119 -120 0
13 -53 67 121 122 0
13 -53 67 121 -122 0
13 -53 67 -121 122 0
13 -53 67 -121 -122 0
13 -67 -98 123 124 0
13 -67 -98 123 -124 0
13 -67 -98 -123 124 0
13 -67 -98 -123 -124 0
-67 -85 98 125 126 0
-67 -85 98 125 -126 0
-67 -85 98 -125 126 0
-67 -85 98 -125 -126 0
-40 85 98 127 128 0
-40 85 98 127 -128 0
-40 85 98 -127 128 0
-40 85 98 -127 -128 0
19 40 85 129 130 0
19 40 85 129 -130 0
19 40 85 -129 130 0
19 40 85 -129 -130 0
2 -19 40 131 132 0
2 -19 40 131 -132 0
2 -19 40 -131 132 0
2 -19 40 -131 -132 0
-2 -19 -22 133 134 0
-2 -19 -22 133 -134 0
-2 -19 -22 -133 134 0
-2 -19 -22 -133 -134 0
-2 -19 -43 135 136 0
-2 -19 -43 135 -136 0
-2 -19 -43 -135 136 0
-2 -19 -43 -135 -136 0
22 43 89 137 138 0
22 43 89 137 -138 0
22 43 89 -137 138 0
22 43 89 -137 -138 0
23 43 89 139 140 0
23 43 89 139 -140 0
23 43 89 -139 140 0
23 43 89 -139 -140 0
-12 -23 89 141 142 0
-12 -23 89 141 -142 0
-12 -23 89 -141 142 0
-12 -23 89 -141 -142 0
22 -61 -89 143 144 0
22 -61 -89 143 -144 0
22 -61 -89 -143 144 0
22 -61 -89 -143 -144 0
61 -66 -89 145 146 0
61 -66 -89 145 -146 0
61 -66 -89 -145 146 0
61 -66 -89 -145 -146 0
57 61 66 147 148 0
57 61 66 147 -148 0
57 61 66 -147 148 0
57 61 66 -147 -148 0
-57 66 97 149 150 0
-57 66 97 149 -150 0
-57 66 97 -149 150 0
-57 66 97 -149 -150 0
-57 83 -97 151 152 0
-57 83 -97 151 -152 0
-57 83 -97 -151 152 0
-57 83 -97 -151 -152 0
5 -83 -97 153 154 0
5 -83 -97 153 -154 0
5 -83 -97 -153 154 0
5 -83 -97 -153 -154 0
-63 -83 -97 155 156 0
-63 -83 -97 155 -156 0
-63 -83 -97 -155 156 0
-63 -83 -97 -155 -156 0
-5 -83 -90 157 158 0
-5 -83 -90 157 -158 0
-5 -83 -90 -157 158 0
-5 -83 -90 -157 -158 0
63 -75 90 159 160 0
63 -75 90 159 -160 0
63 -75 90 -159 160 0
63 -75 90 -159 -160 0
-58 75 90 161 162 0
-58 75 90 161 -162 0
-58 75 90 -161 162 0
-58 75 90 -161 -162 0
-8 58 75 163 164 0
-8 58 75 163 -164 0
-8 58 75 -163 164 0
-8 58 75 -163 -164 0
-33 39 58 165 166 0
-33 39 58 165 -166 0
-33 39 58 -165 166 0
-33 39 58 -165 -166 0
8 -33 58 167 168 0
8 -33 58 167 -168 0
8 -33 58 -167 168 0
8 -33 58 -167 -168 0
8 33 73 169 170 0
8 33 73 169 -170 0
8 33 73 -169 170 0
8 33 73 -169 -170 0
8 -73 -100 171 172 0
8 -73 -100 171 -172 0
8 -73 -100 -171 172 0
8 -73 -100 -171 -172 0
65 -73 100 173 174 0
65 -73 100 173 -174 0
65 -73 100 -173 174 0
65 -73 100 -173 -174 0
-65 -73 88 175 176 0
-65 -73 88 175 -176 0
-65 -73 88 -175 176 0
-65 -73 88 -175 -176 0
-44 -65 -73 177 178 0
-44 -65 -73 177 -178 0
-44 -65 -73 -177 178 0
-44 -65 -73 -177 -178 0
-78 84 -88 179 180 0
-78 84 -88 179 -180 0
-78 84 -88 -179 180 0
-78 84 -88 -179 -180 0
-78 -84 -88 181 182 0
-78 -84 -88 181 -182 0
-78 -84 -88 -181 182 0
-78 -84 -88 -181 -182 0
44 45 55 183 184 0
44 45 55 183 -184 0
44 45 55 -183 184 0
44 45 55 -183 -184 0
44 -45 55 185 186 0
44 -45 55 185 -186 0
44 -45 55 -185 186 0
44 -45 55 -185 -186 0
25 -55 78 187 188 0
25 -55 78 187 -188 0
25 -55 78 -187 188 0
25 -55 78 -187 -188 0
10 -25 -91 189 190 0
10 -25 -91 189 -190 0
10 -25 -91 -189 190 0
10 -25 -91 -189 -190 0
-10 -55 -91 191 192 0
-10 -55 -91 191 -192 0
-10 -55 -91 -191 192 0
-10 -55 -91 -191 -192 0
35 46 91 193 194 0
35 46 91 193 -194 0
35 46 91 -193 194 0
35 46 91 -193 -194 0
35 -46 91 195 196 0
35 -46 91 195 -196 0
35 -46 91 -195 196 0
35 -46 91 -195 -196 0
-35 79 -80 197 198 0
-35 79 -80 197 -198 0
-35 79 -80 -197 198 0
-35 79 -80 -197 -198 0
-25 -35 -80 199 200 0
-25 -35 -80 199 -200 0
-25 -35 -80 -199 200 0
-25 -35 -80 -199 -200 0
16 -35 80 201 202 0
16 -35 80 201 -202 0
16 -35 80 -201 202 0
16 -35 80 -201 -202 0
-16 -48 80 203 204 0
-16 -48 80 203 -204 0
-16 -48 80 -203 204 0
-16 -48 80 -203 -204 0
-16 48 -81 205 206 0
-16 48 -81 205 -206 0
-16 48 -81 -205 206 0
-16 48 -81 -205 -206 0
-17 48 72 207 208 0
-17 48 72 207 -208 0
-17 48 72 -207 208 0
-17 48 72 -207 -208 0
-17 -72 81 209 210 0
-17 -72 81 209 -210 0
-17 -72 81 -209 210 0
-17 -72 81 -209 -210 0
17 -46 81 211 212 0
17 -46 81 211 -212 0
17 -46 81 -211 212 0
17 -46 81 -211 -212 0
-10 17 81 213 214 0
-10 17 81 213 -214 0
-10 17 81 -213 214 0
-10 17 81 -213 -214 0
10 46 86 215 216 0
10 46 86 215 -216 0
10 46 86 -215 216 0
10 46 86 -215 -216 0
10 -45 -86 217 218 0
10 -45 -86 217 -218 0
10 -45 -86 -217 218 0
10 -45 -86 -217 -218 0
45 60 -86 219 220 0
45 60 -86 219 -220 0
45 60 -86 -219 220 0
45 60 -86 -219 -220 0
49 -60 -86 221 222 0
49 -60 -86 221 -222 0
49 -60 -86 -221 222 0
49 -60 -86 -221 -222 0
-49 -52 -60 223 224 0
-49 -52 -60 223 -224 0
-49 -52 -60 -223 224 0
-49 -52 -60 -223 -224 0
-18 -49 52 225 226 0
-18 -49 52 225 -226 0
-18 -49 52 -225 226 0
-18 -49 52 -225 -226 0
-18 -51 52 227 228 0
-18 -51 52 227 -228 0
-18 -51 52 -227 228 0
-18 -51 52 -227 -228 0
18 -49 59 229 230 0
18 -49 59 229 -230 0
18 -49 59 -229 230 0
18 -49 59 -229 -230 0
18 -21 -59 231 232 0
18 -21 -59 231 -232 0
18 -21 -59 -231 232 0
18 -21 -59 -231 -232 0
21 42 -59 233 234 0
21 42 -59 233 -234 0
21 42 -59 -233 234 0
21 42 -59 -233 -234 0
21 -31 -42 235 236 0
21 -31 -42 235 -236 0
21 -31 -42 -235 236 0
21 -31 -42 -235 -236 0
29 31 62 237 238 0
29 31 62 237 -238 0
29 31 62 -237 238 0
29 31 62 -237 -238 0
-29 31 -42 239 240 0
-29 31 -42 239 -240 0
-29 31 -42 -239 240 0
-29 31 -42 -239 -240 0
-7 31 62 241 242 0
-7 31 62 241 -242 0
-7 31 62 -241 242 0
-7 31 62 -241 -242 0
-42 -62 -92 243 244 0
-42 -62 -92 243 -244 0
-42 -62 -92 -243 244 0
-42 -62 -92 -243 -244 0
26 -62 92 245 246 0
26 -62 92 245 -246 0
26 -62 92 -245 246 0
26 -62 92 -245 -246 0
-26 -72 92 247 248 0
-26 -72 92 247 -248 0
-26 -72 92 -247 248 0
-26 -72 92 -247 -248 0
-26 -51 72 249 250 0
-26 -51 72 249 -250 0
-26 -51 72 -249 250 0
-26 -51 72 -249 -250 0
51 72 79 251 252 0
51 72 79 251 -252 0
51 72 79 -251 252 0
51 72 79 -251 -252 0
37 51 -79 253 254 0
37 51 -79 253 -254 0
37 51 -79 -253 254 0
37 51 -79 -253 -254 0
-29 -37 -79 255 256 0
-29 -37 -79 255 -256 0
-29 -37 -79 -255 256 0
-29 -37 -79 -255 -256 0
22 -37 50 257 258 0
22 -37 50 257 -258 0
22 -37 50 -257 258 0
22 -37 50 -257 -258 0
-22 50 -79 259 260 0
-22 50 -79 259 -260 0
-22 50 -79 -259 260 0
-22 50 -79 -259 -260 0
-20 29 -50 261 262 0
-20 29 -50 261 -262 0
-20 29 -50 -261 262 0
-20 29 -50 -261 -262 0
20 -50 -54 263 264 0
20 -50 -54 263 -264 0
20 -50 -54 -263 264 0
20 -50 -54 -263 -264 0
20 54 -71 265 266 0
20 54 -71 265 -266 0
20 54 -71 -265 266 0
20 54 -71 -265 -266 0
14 54 71 267 268 0
14 54 71 267 -268 0
14 54 71 -267 268 0
14 54 71 -267 -268 0
-14 71 -74 269 270 0
-14 71 -74 269 -270 0
-14 71 -74 -269 270 0
-14 71 -74 -269 -270 0
-14 15 74 271 272 0
-14 15 74 271 -272 0
-14 15 74 -271 272 0
-14 15 74 -271 -272 0
-15 28 74 273 274 0
-15 28 74 273 -274 0
-15 28 74 -273 274 0
-15 28 74 -273 -274 0
-21 28 74 275 276 0
-21 28 74 275 -276 0
-21 28 74 -275 276 0
-21 28 74 -275 -276 0
-15 -64 65 277 278 0
-15 -64 65 277 -278 0
-15 -64 65 -277 278 0
-15 -64 65 -277 -278 0
-28 -64 -65 279 280 0
-28 -64 -65 279 -280 0
-28 -64 -65 -279 280 0
-28 -64 -65 -279 -280 0
-28 64 -70 281 282 0
-28 64 -70 281 -282 0
-28 64 -70 -281 282 0
-28 64 -70 -281 -282 0
64 70 -76 283 284 0
64 70 -76 283 -284 0
64 70 -76 -283 284 0
64 70 -76 -283 -284 0
-7 70 76 285 286 0
-7 70 76 285 -286 0
-7 70 76 -285 286 0
-7 70 76 -285 -286 0
-7 76 -96 287 288 0
-7 76 -96 287 -288 0
-7 76 -96 -287 288 0
-7 76 -96 -287 -288 0
-6 36 76 289 290 0
-6 36 76 289 -290 0
-6 36 76 -289 290 0
-6 36 76 -289 -290 0
-6 7 76 291 292 0
-6 7 76 291 -292 0
-6 7 76 -291 292 0
-6 7 76 -291 -292 0
6 7 -93 293 294 0
6 7 -93 293 -294 0
6 7 -93 -293 294 0
6 7 -93 -293 -294 0
6 -41 93 295 296 0
6 -41 93 295 -296 0
6 -41 93 -295 296 0
6 -41 93 -295 -296 0
41 68 93 297 298 0
41 68 93 297 -298 0
41 68 93 -297 298 0
41 68 93 -297 -298 0
39 41 -68 299 300 0
39 41 -68 299 -300 0
39 41 -68 -299 300 0
39 41 -68 -299 -300 0
4 25 -39 301 302 0
4 25 -39 301 -302 0
4 25 -39 -301 302 0
4 25 -39 -301 -302 0
4 -25 -68 303 304 0
4 -25 -68 303 -304 0
4 -25 -68 -303 304 0
4 -25 -68 -303 -304 0
-4 -39 -47 305 306 0
-4 -39 -47 305 -306 0
-4 -39 -47 -305 306 0
-4 -39 -47 -305 -306 0
-4 -30 47 307 308 0
-4 -30 47 307 -308 0
-4 -30 47 -307 308 0
-4 -30 47 -307 -308 0
30 38 47 309 310 0
30 38 47 309 -310 0
30 38 47 -309 310 0
30 38 47 -309 -310 0
30 -38 -69 311 312 0
30 -38 -69 311 -312 0
30 -38 -69 -311 312 0
30 -38 -69 -311 -312 0
-3 -38 69 313 314 0
-3 -38 69 313 -314 0
-3 -38 69 -313 314 0
-3 -38 69 -313 -314 0
3 34 -38 315 316 0
3 34 -38 315 -316 0
3 34 -38 -315 316 0
3 34 -38 -315 -316 0
3 69 -98 317 318 0
3 69 -98 317 -318 0
3 69 -98 -317 318 0
3 69 -98 -317 -318 0
34 -69 -98 319 320 0
34 -69 -98 319 -320 0
34 -69 -98 -319 320 0
34 -69 -98 -319 -320 0
-34 -38 -56 321 322 0
-34 -38 -56 321 -322 0
-34 -38 -56 -321 322 0
-34 -38 -56 -321 -322 0
-34 56 -82 323 324 0
-34 56 -82 323 -324 0
-34 56 -82 -323 324 0
-34 56 -82 -323 -324 0
56 -77 82 325 326 0
56 -77 82 325 -326 0
56 -77 82 -325 326 0
56 -77 82 -325 -326 0
36 77 82 327 328 0
36 77 82 327 -328 0
36 77 82 -327 328 0
36 77 82 -327 -328 0
-9 -36 77 329 330 0
-9 -36 77 329 -330 0
-9 -36 77 -329 330 0
-9 -36 77 -329 -330 0
1 -36 77 331 332 0
1 -36 77 331 -332 0
1 -36 77 -331 332 0
1 -36 77 -331 -332 0
-1 9 -12 333 334 0
-1 9 -12 333 -334 0
-1 9 -12 -333 334 0
-1 9 -12 -333 -334 0
-1 12 -96 335 336 0
-1 12 -96 335 -336 0
-1 12 -96 -335 336 0
-1 12 -96 -335 -336 0
12 24 96 337 338 0
12 24 96 337 -338 0
12 24 96 -337 338 0
12 24 96 -337 -338 0
-24 95 96 339 340 0
-24 95 96 339 -340 0
-24 95 96 -339 340 0
-24 95 96 -339 -340 0
-24 -95 99 341 342 0
-24 -95 99 341 -342 0
-24 -95 99 -341 342 0
-24 -95 99 -341 -342 0
-84 -95 -99 343 344 0
-84 -95 -99 343 -344 0
-84 -95 -99 -343 344 0
-84 -95 -99 -343 -344 0
84 94 -99 345 346 0
84 94 -99 345 -346 0
84 94 -99 -345 346 0
84 94 -99 -345 -346 0
84 -87 -94 347 348 0
84 -87 -94 347 -348 0
84 -87 -94 -347 348 0
84 -87 -94 -347 -348 0
23 87 -94 349 350 0
23 87 -94 349 -350 0
23 87 -94 -349 350 0
23 87 -94 -349 -350 0
-23 -27 87 351 352 0
-23 -27 87 351 -352 0
-23 -27 87 -351 352 0
-23 -27 87 -351 -352 0
-44 57 -92 353 354 0
-44 57 -92 353 -354 0
-44 57 -92 -353 354 0
-44 57 -92 -353 -354 0
-31 -93 95 355 356 0
-31 -93 95 355 -356 0
-31 -93 95 -355 356 0
-31 -93 95 -355 -356 0
33 68 78 357 358 0
33 68 78 357 -358 0
33 68 78 -357 358 0
33 68 78 -357 -358 0
5 19 86 359 360 0
5 19 86 359 -360 0
5 19 86 -359 360 0
5 19 86 -359 -360 0
-58 60 -70 361 362 0
-58 60 -70 361 -362 0
-58 60 -70 -361 362 0
-58 60 -70 -361 -362 0
-45 52 -87 363 364 0
-45 52 -87 363 -364 0
-45 52 -87 -363 364 0
-45 52 -87 -363 -364 0
35 83 -100 365 366 0
35 83 -100 365 -366 0
35 83 -100 -365 366 0
35 83 -100 -365 -366 0
1 -30 49 367 368 0
1 -30 49 367 -368 0
1 -30 49 -367 368 0
1 -30 49 -367 -368 0
24 94 100 369 370 0
24 94 100 369 -370 0
24 94 100 -369 370 0
24 94 100 -369 -370 0
-18 73 80 371 372 0
-18 73 80 371 -372 0
-18 73 80 -371 372 0
-18 73 80 -371 -372 0
26 28 42 373 374 0
26 28 42 373 -374 0
26 28 42 -373 374 0
26 28 42 -373 -374 0
38 -45 97 375 376 0
38 -45 97 375 -376 0
38 -45 97 -375 376 0
38 -45 97 -375 -376 0
14 16 91 377 378 0
14 16 91 377 -378 0
14 16 91 -377 378 0
14 16 91 -377 -378 0
-66 67 99 379 380 0
-66 67 99 379 -380 0
-66 67 99 -379 380 0
-66 67 99 -379 -380 0
-43 -48 -51 381 382 0
-43 -48 -51 381 -382 0
-43 -48 -51 -381 382 0
-43 -48 -51 -381 -382 0
16 -40 44 383 384 0
16 -40 44 383 -384 0
16 -40 44 -383 384 0
16 -40 44 -383 -384 0
-31 -41 -81 385 386 0
-31 -41 -81 385 -386 0
-31 -41 -81 -385 386 0
-31 -41 -81 -385 -386 0
15 42 -82 387 388 0
15 42 -82 387 -388 0
15 42 -82 -387 388 0
15 42 -82 -387 -388 0
33 -51 83 389 390 0
33 -51 83 389 -390 0
33 -51 83 -389 390 0
33 -51 83 -389 -390 0
-5 25 -71 391 392 0
-5 25 -71 391 -392 0
-5 25 -71 -391 392 0
-5 25 -71 -391 -392 0
2 -56 -76 393 394 0
2 -56 -76 393 -394 0
2 -56 -76 -393 394 0
2 -56 -76 -393 -394 0
-43 -48 73 395 396 0
-43 -48 73 395 -396 0
-43 -48 73 -395 396 0
-43 -48 73 -395 -396 0
59 60 -85 397 398 0
59 60 -85 397 -398 0
59 60 -85 -397 398 0
59 60 -85 -397 -398 0
-3 -8 -75 399 400 0
-3 -8 -75 399 -400 0
-3 -8 -75 -399 400 0
-3 -8 -75 -399 -400 0
-30 33 39 401 402 0
-30 33 39 401 -402 0
-30 33 39 -401 402 0
-30 33 39 -401 -402 0
19 36 79 403 404 0
19 36 79 403 -404 0
19 36 79 -403 404 0
19 36 79 -403 -404 0
29 -72 88 405 406 0
29 -72 88 405 -406 0
29 -72 88 -405 406 0
29 -72 88 -405 -406 0
24 49 -74 407 408 0
24 49 -74 407 -408 0
24 49 -74 -407 408 0
24 49 -74 -407 -408 0
-30 -54 -90 409 410 0
-30 -54 -90 409 -410 0
-30 -54 -90 -409 410 0
-30 -54 -90 -409 -410 0
40 -47 79 411 412 0
40 -47 79 411 -412 0
40 -47 79 -411 412 0
40 -47 79 -411 -412 0
14 -30 -61 413 414 0
14 -30 -61 413 -414 0
14 -30 -61 -413 414 0
14 -30 -61 -413 -414 0
13 -30 35 415 416 0
13 -30 35 415 -416 0
13 -30 35 -415 416 0
13 -30 35 -415 -416 0
14 -52 -77 417 418 0
14 -52 -77 417 -418 0
14 -52 -77 -417 418 0
14 -52 -77 -417 -418 0
37 -77 419 420 421 0
37 -77 419 420 -421 0
37 -77 419 -420 421 0
37 -77 419 -420 -421 0
37 -77 -419 420 421 0
37 -77 -419 420 -421 0
37 -77 -419 -420 421 0
37 -77 -419 -420 -421 0
